0 0 0 0
0 1 0 0
0 2 0 0
0 3 2 0
0 4 2 9
0 5 0 19
0 6 0 9
0 7 0 19
0 8 0 24
0 9 0 9
0 10 1 5
0 11 0 9
0 12 0 26
0 13 0 9
0 14 0 11
0 15 0 24
0 16 2 19
0 17 0 24
0 18 0 26
0 19 0 24
0 20 0 31
0 21 0 27
0 22 0 27
0 23 0 29
0 24 2 25
0 25 1 27
0 26 0 31
0 27 0 32
0 28 0 34
0 29 0 35
0 30 0 32
0 31 0 37
